(set-info :source |
 Generated by Alive 0.1
 More info in N. P. Lopes, D. Menendez, S. Nagarakatte, J. Regehr.
 Provably Correct Peephole Optimizations with Alive. In PLDI'15.
|)

(set-info :status unknown)
(declare-fun %Y () (_ BitVec 23))
(declare-fun %X () (_ BitVec 23))
(assert
 (let (($x454481 (and (distinct (bvudiv ((_ zero_extend 3) %X) ((_ zero_extend 3) %Y)) ((_ zero_extend 3) (bvudiv %X %Y))) true)))
 (let ((?x454489 ((_ zero_extend 3) %Y)))
 (let (($x454479 (and (distinct ?x454489 (_ bv0 26)) true)))
 (and $x454479 $x454481)))))
(check-sat)
